72 1
133 2
136 3
108 4
4 5
139 6
107 4
27 7
98 8
99 8
102 8
3 1
71 2
97 3
135 4
138 5
105 6
106 6
101 8
134 1
137 2
103 3
104 3
132 4
95 5
1 6
29 7
49 7
130 8
69 9
109 10
110 10
6 11
74 12
96 5
68 9
2 6
7 11
75 12
111 10
70 9
73 12
100 5
8 11
18 9
19 9
22 9
24 9
25 9
26 9
39 10
40 10
43 10
45 10
46 10
47 10
59 11
60 11
63 11
65 11
66 11
67 11
76 8
86 12
87 12
90 12
92 12
93 12
94 12
121 13
122 13
125 13
127 13
128 13
129 13
20 9
23 9
41 10
44 10
61 11
64 11
88 12
91 12
123 13
126 13
5 7
21 7
42 9
62 10
89 11
124 12
9 7
10 7
11 7
12 7
13 7
14 7
15 7
16 7
30 8
31 8
32 8
33 8
34 8
35 8
36 8
37 8
50 9
51 9
52 9
53 9
54 9
55 9
56 9
57 9
77 10
78 10
79 10
80 10
81 10
82 10
83 10
84 10
112 11
113 11
114 11
115 11
116 11
117 11
118 11
119 11
48 4
17 5
38 6
58 7
85 8
120 9
28 5
131 2
